(set-logic QF_S)
(declare-fun var0 () String)
(assert (RegexIn var0 (RegexConcat (RegexPlus (RegexPlus (Str2Reg "000"))) (RegexConcat (RegexPlus (RegexStar (Str2Reg "11"))) (RegexConcat (RegexPlus (RegexPlus (Str2Reg "222"))) (RegexConcat (RegexPlus (RegexUnion (Str2Reg "3") (Str2Reg "4"))) (RegexConcat (RegexPlus (RegexStar (Str2Reg "55"))) (RegexConcat (RegexPlus (RegexStar (Str2Reg "6"))) (RegexConcat (RegexPlus (RegexStar (Str2Reg "7"))) (RegexConcat (RegexStar (RegexStar (Str2Reg "8"))) (RegexConcat (RegexPlus (RegexPlus (Str2Reg "99"))) (RegexConcat (RegexStar (RegexUnion (Str2Reg "a") (Str2Reg "bb"))) (RegexConcat (RegexUnion (RegexUnion (Str2Reg "c") (Str2Reg "ddd")) (RegexUnion (Str2Reg "eee") (Str2Reg "fff"))) (RegexConcat (RegexStar (RegexStar (Str2Reg "gg"))) (RegexConcat (RegexPlus (RegexPlus (Str2Reg "hh"))) (RegexConcat (RegexPlus (RegexPlus (Str2Reg "i"))) (RegexConcat (RegexPlus (RegexPlus (Str2Reg "jjj"))) (RegexConcat (RegexStar (RegexUnion (Str2Reg "k") (Str2Reg "lll"))) (RegexConcat (RegexStar (RegexUnion (Str2Reg "mmm") (Str2Reg "n"))) (RegexConcat (RegexStar (RegexUnion (Str2Reg "o") (Str2Reg "p"))) (RegexConcat (RegexStar (RegexStar (Str2Reg "qq"))) (RegexConcat (RegexStar (RegexStar (Str2Reg "r"))) (RegexConcat (RegexUnion (RegexPlus (Str2Reg "s")) (RegexPlus (Str2Reg "tt"))) (RegexConcat (RegexUnion (RegexPlus (Str2Reg "uuu")) (RegexPlus (Str2Reg "v"))) (RegexConcat (RegexStar (RegexPlus (Str2Reg "ww"))) (RegexConcat (RegexPlus (RegexPlus (Str2Reg "xx"))) (RegexConcat (RegexStar (RegexStar (Str2Reg "yy"))) (RegexConcat (RegexStar (RegexUnion (Str2Reg "zzz") (Str2Reg "AAA"))) (RegexConcat (RegexStar (RegexUnion (Str2Reg "BBB") (Str2Reg "C"))) (RegexConcat (RegexUnion (RegexPlus (Str2Reg "D")) (RegexPlus (Str2Reg "E"))) (RegexConcat (RegexPlus (RegexUnion (Str2Reg "F") (Str2Reg "G"))) (RegexConcat (RegexUnion (RegexStar (Str2Reg "HH")) (RegexStar (Str2Reg "II"))) (RegexConcat (RegexStar (RegexPlus (Str2Reg "JJ"))) (RegexConcat (RegexUnion (RegexUnion (Str2Reg "KKK") (Str2Reg "LL")) (RegexUnion (Str2Reg "M") (Str2Reg "NNN"))) (RegexConcat (RegexUnion (RegexUnion (Str2Reg "OO") (Str2Reg "PPP")) (RegexUnion (Str2Reg "QQQ") (Str2Reg "RRR"))) (RegexConcat (RegexUnion (RegexPlus (Str2Reg "SSS")) (RegexPlus (Str2Reg "T"))) (RegexConcat (RegexUnion (RegexStar (Str2Reg "U")) (RegexStar (Str2Reg "VVV"))) (RegexConcat (RegexStar (RegexPlus (Str2Reg "WWW"))) (RegexUnion (RegexStar (Str2Reg "XX")) (RegexStar (Str2Reg "YYY")))))))))))))))))))))))))))))))))))))))))
(check-sat)